c This is UnifRandomKSATGenerator
c uniform random 3-SAT generated instance with: 
c clause length: 3 
c number variables: 20 
c number clauses: 85 
c clause to variable ratio: 4.27 
c random number generator name: SHA1PRNG 
c random number generator provider: SUN 
c random number generator seed: 1381771389558238610 
p cnf 20 85
-19 -20 4 0
-9 -19 20 0
17 10 18 0
-18 10 14 0
2 4 -14 0
-11 -5 -8 0
6 -16 15 0
-1 -2 -8 0
-15 6 -8 0
16 -3 19 0
18 -19 -8 0
9 4 6 0
10 3 4 0
1 -19 4 0
-18 -3 -5 0
-17 18 5 0
-2 3 7 0
3 12 -6 0
9 1 11 0
17 4 15 0
-9 17 -3 0
8 19 15 0
-10 -19 -14 0
-9 -19 -14 0
2 -4 -14 0
10 18 -11 0
8 2 -7 0
8 19 -12 0
16 -9 6 0
4 -6 -7 0
8 9 4 0
10 -11 -6 0
-19 12 -14 0
16 -17 -10 0
9 10 12 0
17 10 5 0
16 -14 13 0
-12 -6 -7 0
-18 13 5 0
-17 -1 10 0
-3 -14 6 0
-1 -13 7 0
2 -15 -16 0
13 -7 -16 0
-11 19 3 0
10 13 14 0
9 11 14 0
17 10 13 0
-20 -14 -7 0
-17 -6 -16 0
2 -13 -8 0
-10 3 -14 0
2 -12 -15 0
-12 -6 7 0
16 -11 4 0
12 13 5 0
-10 13 -14 0
1 20 12 0
-17 19 -8 0
-1 8 20 0
18 -12 -15 0
-19 5 14 0
13 -7 14 0
-9 1 5 0
-20 -13 4 0
-20 -13 7 0
1 20 13 0
8 11 13 0
-18 -5 -8 0
19 14 15 0
10 2 -13 0
-20 -12 4 0
8 -9 2 0
8 -3 6 0
-10 4 -8 0
18 3 19 0
-10 14 -8 0
8 19 12 0
-18 -4 -7 0
-19 -20 -13 0
20 5 6 0
-17 -13 -8 0
2 -3 -16 0
-3 -20 11 0
10 5 -8 0
